p tw 155 32551 2 
1 3 
1 4 
1 5 
1 6 
1 7 
1 8 
1 9 
1 10 
1 11 
1 12 
1 13 
1 14 
1 15 
1 16 
1 17 
1 18 
1 19 
1 20 
1 33 
1 38 
1 45 
1 52 
1 57 
1 66 
1 69 
1 80 
1 85 
1 86 
1 87 
1 88 
1 89 
1 90 
1 91 
1 99 
1 107 
1 113 
1 123 
1 127 
1 139 
1 141 
1 155 
2 3 
2 4 
2 5 
2 6 
2 7 
2 8 
2 9 
2 10 
2 11 
2 12 
2 13 
2 14 
2 15 
2 16 
2 21 
2 22 
2 23 
2 24 
2 30 
2 37 
2 44 
2 49 
2 58 
2 61 
2 72 
2 73 
2 81 
2 90 
2 91 
2 92 
2 93 
2 94 
2 95 
2 97 
2 104 
2 113 
2 118 
2 129 
2 132 
2 145 
2 146 
3 4 
3 5 
3 6 
3 7 
3 8 
3 9 
3 10 
3 11 
3 12 
3 13 
3 14 
3 15 
3 16 
3 25 
3 26 
3 27 
3 28 
3 34 
3 41 
3 48 
3 53 
3 62 
3 65 
3 76 
3 77 
3 81 
3 82 
3 83 
3 84 
3 85 
3 86 
3 95 
3 102 
3 109 
3 118 
3 123 
3 134 
3 137 
3 150 
3 151 
4 5 
4 6 
4 7 
4 8 
4 9 
4 10 
4 11 
4 12 
4 13 
4 14 
4 15 
4 20 
4 25 
4 29 
4 30 
4 31 
4 32 
4 33 
4 46 
4 51 
4 58 
4 65 
4 70 
4 79 
4 85 
4 91 
4 100 
4 101 
4 102 
4 103 
4 104 
4 105 
4 106 
4 114 
4 122 
4 128 
4 138 
4 142 
4 154 
5 6 
5 7 
5 8 
5 9 
5 10 
5 11 
5 12 
5 13 
5 14 
5 15 
5 17 
5 24 
5 29 
5 34 
5 35 
5 36 
5 37 
5 43 
5 50 
5 57 
5 62 
5 71 
5 74 
5 81 
5 90 
5 96 
5 105 
5 106 
5 107 
5 108 
5 109 
5 110 
5 112 
5 119 
5 128 
5 133 
5 144 
5 147 
6 7 
6 8 
6 9 
6 10 
6 11 
6 12 
6 13 
6 14 
6 15 
6 21 
6 28 
6 29 
6 38 
6 39 
6 40 
6 41 
6 47 
6 54 
6 61 
6 66 
6 75 
6 78 
6 86 
6 95 
6 96 
6 97 
6 98 
6 99 
6 100 
6 101 
6 110 
6 117 
6 124 
6 133 
6 138 
6 149 
6 152 
7 8 
7 9 
7 10 
7 11 
7 12 
7 13 
7 14 
7 15 
7 19 
7 26 
7 33 
7 38 
7 42 
7 43 
7 44 
7 45 
7 46 
7 59 
7 64 
7 71 
7 78 
7 84 
7 92 
7 100 
7 106 
7 115 
7 116 
7 117 
7 118 
7 119 
7 120 
7 121 
7 129 
7 137 
7 143 
7 153 
8 9 
8 10 
8 11 
8 12 
8 13 
8 14 
8 15 
8 18 
8 23 
8 30 
8 37 
8 42 
8 47 
8 48 
8 49 
8 50 
8 56 
8 63 
8 70 
8 75 
8 82 
8 89 
8 96 
8 105 
8 111 
8 120 
8 121 
8 122 
8 123 
8 124 
8 125 
8 127 
8 134 
8 143 
8 148 
9 10 
9 11 
9 12 
9 13 
9 14 
9 15 
9 22 
9 27 
9 34 
9 41 
9 42 
9 51 
9 52 
9 53 
9 54 
9 60 
9 67 
9 74 
9 79 
9 87 
9 94 
9 101 
9 110 
9 111 
9 112 
9 113 
9 114 
9 115 
9 116 
9 125 
9 132 
9 139 
9 148 
9 153 
10 11 
10 12 
10 13 
10 14 
10 15 
10 18 
10 27 
10 32 
10 39 
10 46 
10 51 
10 55 
10 56 
10 57 
10 58 
10 59 
10 72 
10 77 
10 83 
10 93 
10 99 
10 107 
10 115 
10 121 
10 130 
10 131 
10 132 
10 133 
10 134 
10 135 
10 136 
10 144 
10 152 
11 12 
11 13 
11 14 
11 15 
11 19 
11 22 
11 31 
11 36 
11 43 
11 50 
11 55 
11 60 
11 61 
11 62 
11 63 
11 69 
11 76 
11 83 
11 88 
11 97 
11 104 
11 111 
11 120 
11 126 
11 135 
11 136 
11 137 
11 138 
11 139 
11 140 
11 142 
11 149 
12 13 
12 14 
12 15 
12 23 
12 26 
12 35 
12 40 
12 47 
12 54 
12 55 
12 64 
12 65 
12 66 
12 67 
12 73 
12 80 
12 88 
12 93 
12 102 
12 109 
12 116 
12 125 
12 126 
12 127 
12 128 
12 129 
12 130 
12 131 
12 140 
12 147 
12 154 
13 14 
13 15 
13 17 
13 28 
13 31 
13 40 
13 45 
13 52 
13 59 
13 64 
13 68 
13 69 
13 70 
13 71 
13 72 
13 82 
13 94 
13 98 
13 108 
13 114 
13 122 
13 130 
13 136 
13 145 
13 146 
13 147 
13 148 
13 149 
13 150 
13 151 
14 15 
14 20 
14 21 
14 32 
14 35 
14 44 
14 49 
14 56 
14 63 
14 68 
14 73 
14 74 
14 75 
14 76 
14 84 
14 87 
14 98 
14 103 
14 112 
14 119 
14 126 
14 135 
14 141 
14 150 
14 151 
14 152 
14 153 
14 154 
14 155 
15 24 
15 25 
15 36 
15 39 
15 48 
15 53 
15 60 
15 67 
15 68 
15 77 
15 78 
15 79 
15 80 
15 89 
15 92 
15 103 
15 108 
15 117 
15 124 
15 131 
15 140 
15 141 
15 142 
15 143 
15 144 
15 145 
15 146 
15 155 
16 17 
16 18 
16 19 
16 20 
16 21 
16 22 
16 23 
16 24 
16 25 
16 26 
16 27 
16 28 
16 30 
16 34 
16 38 
16 44 
16 48 
16 52 
16 58 
16 62 
16 66 
16 72 
16 76 
16 80 
16 81 
16 86 
16 91 
16 97 
16 102 
16 107 
16 113 
16 118 
16 123 
16 129 
16 134 
16 139 
16 145 
16 150 
16 155 
17 18 
17 19 
17 20 
17 29 
17 31 
17 34 
17 35 
17 36 
17 37 
17 38 
17 43 
17 45 
17 52 
17 57 
17 59 
17 66 
17 71 
17 80 
17 81 
17 82 
17 91 
17 96 
17 98 
17 107 
17 112 
17 114 
17 123 
17 128 
17 130 
17 139 
17 144 
17 145 
17 146 
17 147 
17 148 
17 149 
17 150 
17 155 
18 19 
18 20 
18 30 
18 32 
18 38 
18 42 
18 46 
18 47 
18 48 
18 49 
18 50 
18 52 
18 56 
18 66 
18 70 
18 72 
18 80 
18 82 
18 83 
18 91 
18 96 
18 99 
18 107 
18 111 
18 115 
18 123 
18 127 
18 130 
18 131 
18 132 
18 133 
18 134 
18 135 
18 139 
18 143 
18 144 
18 155 
19 20 
19 31 
19 33 
19 38 
19 43 
19 52 
19 55 
19 59 
19 60 
19 61 
19 62 
19 63 
19 66 
19 69 
19 71 
19 80 
19 83 
19 84 
19 91 
19 97 
19 100 
19 107 
19 111 
19 115 
19 116 
19 117 
19 118 
19 119 
19 120 
19 123 
19 126 
19 129 
19 139 
19 142 
19 143 
19 155 
20 32 
20 38 
20 44 
20 46 
20 52 
20 56 
20 58 
20 66 
20 68 
20 70 
20 73 
20 74 
20 75 
20 76 
20 80 
20 84 
20 85 
20 91 
20 98 
20 100 
20 101 
20 102 
20 103 
20 104 
20 105 
20 107 
20 112 
20 114 
20 123 
20 126 
20 128 
20 139 
20 141 
20 142 
20 155 
21 22 
21 23 
21 24 
21 29 
21 30 
21 35 
21 38 
21 39 
21 40 
21 41 
21 44 
21 47 
21 49 
21 58 
21 61 
21 63 
21 72 
21 75 
21 81 
21 86 
21 87 
21 97 
21 101 
21 103 
21 113 
21 117 
21 119 
21 129 
21 133 
21 135 
21 145 
21 149 
21 150 
21 151 
21 152 
21 153 
21 154 
21 155 
22 23 
22 24 
22 30 
22 34 
22 36 
22 42 
22 44 
22 50 
22 51 
22 52 
22 53 
22 54 
22 58 
22 60 
22 72 
22 74 
22 76 
22 81 
22 87 
22 88 
22 97 
22 101 
22 104 
22 113 
22 116 
22 120 
22 129 
22 132 
22 135 
22 136 
22 137 
22 138 
22 139 
22 140 
22 145 
22 148 
22 149 
23 24 
23 30 
23 35 
23 37 
23 44 
23 47 
23 55 
23 58 
23 63 
23 64 
23 65 
23 66 
23 67 
23 72 
23 73 
23 75 
23 81 
23 88 
23 89 
23 97 
23 102 
23 105 
23 113 
23 116 
23 120 
23 121 
23 122 
23 123 
23 124 
23 125 
23 129 
23 131 
23 134 
23 145 
23 147 
23 148 
24 30 
24 36 
24 44 
24 48 
24 50 
24 58 
24 60 
24 62 
24 68 
24 72 
24 74 
24 77 
24 78 
24 79 
24 80 
24 81 
24 89 
24 90 
24 97 
24 103 
24 105 
24 106 
24 107 
24 108 
24 109 
24 110 
24 113 
24 117 
24 119 
24 129 
24 131 
24 133 
24 145 
24 146 
24 147 
25 26 
25 27 
25 28 
25 29 
25 30 
25 31 
25 32 
25 33 
25 34 
25 39 
25 48 
25 51 
25 53 
25 62 
25 65 
25 67 
25 76 
25 79 
25 86 
25 91 
25 92 
25 102 
25 106 
25 108 
25 118 
25 122 
25 124 
25 134 
25 138 
25 140 
25 141 
25 142 
25 143 
25 144 
25 145 
25 150 
25 154 
25 155 
26 27 
26 28 
26 34 
26 38 
26 40 
26 42 
26 43 
26 44 
26 45 
26 46 
26 48 
26 54 
26 62 
26 64 
26 76 
26 78 
26 80 
26 86 
26 92 
26 93 
26 102 
26 106 
26 109 
26 118 
26 121 
26 125 
26 126 
26 127 
26 128 
26 129 
26 130 
26 134 
26 137 
26 140 
26 150 
26 153 
26 154 
27 28 
27 34 
27 39 
27 41 
27 48 
27 51 
27 55 
27 56 
27 57 
27 58 
27 59 
27 62 
27 67 
27 76 
27 77 
27 79 
27 86 
27 93 
27 94 
27 102 
27 107 
27 110 
27 111 
27 112 
27 113 
27 114 
27 115 
27 118 
27 121 
27 125 
27 134 
27 136 
27 139 
27 150 
27 152 
27 153 
28 34 
28 40 
28 48 
28 52 
28 54 
28 62 
28 64 
28 66 
28 68 
28 69 
28 70 
28 71 
28 72 
28 76 
28 78 
28 86 
28 94 
28 95 
28 96 
28 97 
28 98 
28 99 
28 100 
28 102 
28 108 
28 110 
28 118 
28 122 
28 124 
28 134 
28 136 
28 138 
28 150 
28 151 
28 152 
29 30 
29 31 
29 32 
29 33 
29 34 
29 35 
29 36 
29 37 
29 38 
29 39 
29 40 
29 41 
29 43 
29 47 
29 51 
29 57 
29 61 
29 65 
29 71 
29 75 
29 79 
29 81 
29 86 
29 91 
29 96 
29 101 
29 106 
29 112 
29 117 
29 122 
29 128 
29 133 
29 138 
29 144 
29 149 
29 154 
30 31 
30 32 
30 33 
30 42 
30 44 
30 47 
30 48 
30 49 
30 50 
30 51 
30 56 
30 58 
30 65 
30 70 
30 72 
30 79 
30 81 
30 82 
30 91 
30 96 
30 97 
30 106 
30 111 
30 113 
30 122 
30 127 
30 129 
30 138 
30 143 
30 145 
30 154 
31 32 
31 33 
31 43 
31 45 
31 51 
31 55 
31 59 
31 60 
31 61 
31 62 
31 63 
31 65 
31 69 
31 79 
31 82 
31 83 
31 91 
31 97 
31 98 
31 106 
31 111 
31 114 
31 122 
31 126 
31 130 
31 138 
31 142 
31 145 
31 146 
31 147 
31 148 
31 149 
31 150 
31 154 
32 33 
32 44 
32 46 
32 51 
32 56 
32 65 
32 68 
32 72 
32 73 
32 74 
32 75 
32 76 
32 79 
32 83 
32 84 
32 91 
32 98 
32 99 
32 106 
32 112 
32 115 
32 122 
32 126 
32 130 
32 131 
32 132 
32 133 
32 134 
32 135 
32 138 
32 141 
32 144 
32 154 
33 45 
33 51 
33 57 
33 59 
33 65 
33 69 
33 71 
33 79 
33 84 
33 85 
33 86 
33 87 
33 88 
33 89 
33 90 
33 91 
33 99 
33 100 
33 106 
33 113 
33 115 
33 116 
33 117 
33 118 
33 119 
33 120 
33 122 
33 127 
33 129 
33 138 
33 141 
33 143 
33 154 
34 35 
34 36 
34 37 
34 42 
34 43 
34 48 
34 51 
34 52 
34 53 
34 54 
34 57 
34 60 
34 62 
34 71 
34 74 
34 76 
34 81 
34 86 
34 87 
34 96 
34 101 
34 102 
34 112 
34 116 
34 118 
34 128 
34 132 
34 134 
34 144 
34 148 
34 150 
35 36 
35 37 
35 43 
35 47 
35 49 
35 55 
35 57 
35 63 
35 64 
35 65 
35 66 
35 67 
35 71 
35 73 
35 81 
35 87 
35 88 
35 96 
35 102 
35 103 
35 112 
35 116 
35 119 
35 128 
35 131 
35 135 
35 144 
35 147 
35 150 
35 151 
35 152 
35 153 
35 154 
35 155 
36 37 
36 43 
36 48 
36 50 
36 57 
36 60 
36 68 
36 71 
36 76 
36 77 
36 78 
36 79 
36 80 
36 81 
36 88 
36 89 
36 96 
36 103 
36 104 
36 112 
36 117 
36 120 
36 128 
36 131 
36 135 
36 136 
36 137 
36 138 
36 139 
36 140 
36 144 
36 146 
36 149 
37 43 
37 49 
37 57 
37 61 
37 63 
37 71 
37 73 
37 75 
37 81 
37 89 
37 90 
37 91 
37 92 
37 93 
37 94 
37 95 
37 96 
37 104 
37 105 
37 112 
37 118 
37 120 
37 121 
37 122 
37 123 
37 124 
37 125 
37 128 
37 132 
37 134 
37 144 
37 146 
37 148 
38 39 
38 40 
38 41 
38 42 
38 43 
38 44 
38 45 
38 46 
38 47 
38 52 
38 61 
38 64 
38 66 
38 75 
38 78 
38 80 
38 86 
38 91 
38 92 
38 101 
38 106 
38 107 
38 117 
38 121 
38 123 
38 133 
38 137 
38 139 
38 149 
38 153 
38 155 
39 40 
39 41 
39 47 
39 51 
39 53 
39 55 
39 56 
39 57 
39 58 
39 59 
39 61 
39 67 
39 75 
39 77 
39 86 
39 92 
39 93 
39 101 
39 107 
39 108 
39 117 
39 121 
39 124 
39 133 
39 136 
39 140 
39 141 
39 142 
39 143 
39 144 
39 145 
39 149 
39 152 
39 155 
40 41 
40 47 
40 52 
40 54 
40 61 
40 64 
40 68 
40 69 
40 70 
40 71 
40 72 
40 75 
40 80 
40 86 
40 93 
40 94 
40 101 
40 108 
40 109 
40 117 
40 122 
40 125 
40 126 
40 127 
40 128 
40 129 
40 130 
40 133 
40 136 
40 140 
40 149 
40 151 
40 154 
41 47 
41 53 
41 61 
41 65 
41 67 
41 75 
41 77 
41 79 
41 81 
41 82 
41 83 
41 84 
41 85 
41 86 
41 94 
41 95 
41 101 
41 109 
41 110 
41 111 
41 112 
41 113 
41 114 
41 115 
41 117 
41 123 
41 125 
41 133 
41 137 
41 139 
41 149 
41 151 
41 153 
42 43 
42 44 
42 45 
42 46 
42 47 
42 48 
42 49 
42 50 
42 51 
42 52 
42 53 
42 54 
42 56 
42 60 
42 64 
42 70 
42 74 
42 78 
42 82 
42 87 
42 92 
42 96 
42 101 
42 106 
42 111 
42 116 
42 121 
42 127 
42 132 
42 137 
42 143 
42 148 
42 153 
43 44 
43 45 
43 46 
43 55 
43 57 
43 60 
43 61 
43 62 
43 63 
43 64 
43 69 
43 71 
43 78 
43 81 
43 83 
43 92 
43 96 
43 97 
43 106 
43 111 
43 112 
43 121 
43 126 
43 128 
43 137 
43 142 
43 144 
43 153 
44 45 
44 46 
44 56 
44 58 
44 64 
44 68 
44 72 
44 73 
44 74 
44 75 
44 76 
44 78 
44 81 
44 84 
44 92 
44 97 
44 98 
44 106 
44 112 
44 113 
44 121 
44 126 
44 129 
44 137 
44 141 
44 145 
44 153 
45 46 
45 57 
45 59 
45 64 
45 69 
45 78 
45 82 
45 85 
45 86 
45 87 
45 88 
45 89 
45 90 
45 92 
45 98 
45 99 
45 106 
45 113 
45 114 
45 121 
45 127 
45 130 
45 137 
45 141 
45 145 
45 146 
45 147 
45 148 
45 149 
45 150 
45 153 
46 58 
46 64 
46 70 
46 72 
46 78 
46 83 
46 85 
46 92 
46 99 
46 100 
46 101 
46 102 
46 103 
46 104 
46 105 
46 106 
46 114 
46 115 
46 121 
46 128 
46 130 
46 131 
46 132 
46 133 
46 134 
46 135 
46 137 
46 142 
46 144 
46 153 
47 48 
47 49 
47 50 
47 55 
47 56 
47 61 
47 64 
47 65 
47 66 
47 67 
47 70 
47 73 
47 75 
47 82 
47 86 
47 88 
47 96 
47 101 
47 102 
47 111 
47 116 
47 117 
47 127 
47 131 
47 133 
47 143 
47 147 
47 149 
48 49 
48 50 
48 56 
48 60 
48 62 
48 68 
48 70 
48 76 
48 77 
48 78 
48 79 
48 80 
48 82 
48 86 
48 89 
48 96 
48 102 
48 103 
48 111 
48 117 
48 118 
48 127 
48 131 
48 134 
48 143 
48 146 
48 150 
49 50 
49 56 
49 61 
49 63 
49 70 
49 73 
49 82 
49 87 
49 90 
49 91 
49 92 
49 93 
49 94 
49 95 
49 96 
49 103 
49 104 
49 111 
49 118 
49 119 
49 127 
49 132 
49 135 
49 143 
49 146 
49 150 
49 151 
49 152 
49 153 
49 154 
49 155 
50 56 
50 62 
50 70 
50 74 
50 76 
50 82 
50 88 
50 90 
50 96 
50 104 
50 105 
50 106 
50 107 
50 108 
50 109 
50 110 
50 111 
50 119 
50 120 
50 127 
50 133 
50 135 
50 136 
50 137 
50 138 
50 139 
50 140 
50 143 
50 147 
50 149 
51 52 
51 53 
51 54 
51 55 
51 56 
51 57 
51 58 
51 59 
51 60 
51 65 
51 74 
51 77 
51 79 
51 87 
51 91 
51 93 
51 101 
51 106 
51 107 
51 116 
51 121 
51 122 
51 132 
51 136 
51 138 
51 148 
51 152 
51 154 
52 53 
52 54 
52 60 
52 64 
52 66 
52 68 
52 69 
52 70 
52 71 
52 72 
52 74 
52 80 
52 87 
52 91 
52 94 
52 101 
52 107 
52 108 
52 116 
52 122 
52 123 
52 132 
52 136 
52 139 
52 148 
52 151 
52 155 
53 54 
53 60 
53 65 
53 67 
53 74 
53 77 
53 81 
53 82 
53 83 
53 84 
53 85 
53 87 
53 92 
53 95 
53 101 
53 108 
53 109 
53 116 
53 123 
53 124 
53 132 
53 137 
53 140 
53 141 
53 142 
53 143 
53 144 
53 145 
53 148 
53 151 
53 155 
54 60 
54 66 
54 74 
54 78 
54 80 
54 87 
54 93 
54 95 
54 96 
54 97 
54 98 
54 99 
54 100 
54 101 
54 109 
54 110 
54 116 
54 124 
54 125 
54 126 
54 127 
54 128 
54 129 
54 130 
54 132 
54 138 
54 140 
54 148 
54 152 
54 154 
55 56 
55 57 
55 58 
55 59 
55 60 
55 61 
55 62 
55 63 
55 64 
55 65 
55 66 
55 67 
55 69 
55 73 
55 77 
55 83 
55 88 
55 93 
55 97 
55 102 
55 107 
55 111 
55 116 
55 121 
55 126 
55 131 
55 136 
55 142 
55 147 
55 152 
56 57 
56 58 
56 59 
56 68 
56 70 
56 73 
56 74 
56 75 
56 76 
56 77 
56 82 
56 84 
56 93 
56 96 
56 98 
56 107 
56 111 
56 112 
56 121 
56 126 
56 127 
56 136 
56 141 
56 143 
56 152 
57 58 
57 59 
57 69 
57 71 
57 77 
57 81 
57 85 
57 86 
57 87 
57 88 
57 89 
57 90 
57 93 
57 96 
57 99 
57 107 
57 112 
57 113 
57 121 
57 127 
57 128 
57 136 
57 141 
57 144 
57 152 
58 59 
58 70 
58 72 
58 77 
58 81 
58 85 
58 93 
58 97 
58 100 
58 101 
58 102 
58 103 
58 104 
58 105 
58 107 
58 113 
58 114 
58 121 
58 128 
58 129 
58 136 
58 142 
58 145 
58 152 
59 71 
59 77 
59 82 
59 84 
59 93 
59 98 
59 100 
59 107 
59 114 
59 115 
59 116 
59 117 
59 118 
59 119 
59 120 
59 121 
59 129 
59 130 
59 136 
59 143 
59 145 
59 146 
59 147 
59 148 
59 149 
59 150 
59 152 
60 61 
60 62 
60 63 
60 68 
60 69 
60 74 
60 77 
60 78 
60 79 
60 80 
60 83 
60 87 
60 89 
60 97 
60 101 
60 103 
60 111 
60 116 
60 117 
60 126 
60 131 
60 132 
60 142 
60 146 
60 148 
61 62 
61 63 
61 69 
61 73 
61 75 
61 83 
61 86 
61 90 
61 91 
61 92 
61 93 
61 94 
61 95 
61 97 
61 101 
61 104 
61 111 
61 117 
61 118 
61 126 
61 132 
61 133 
61 142 
61 146 
61 149 
62 63 
62 69 
62 74 
62 76 
62 83 
62 86 
62 90 
62 97 
62 102 
62 105 
62 106 
62 107 
62 108 
62 109 
62 110 
62 111 
62 118 
62 119 
62 126 
62 133 
62 134 
62 142 
62 147 
62 150 
63 69 
63 75 
63 83 
63 87 
63 89 
63 97 
63 103 
63 105 
63 111 
63 119 
63 120 
63 121 
63 122 
63 123 
63 124 
63 125 
63 126 
63 134 
63 135 
63 142 
63 148 
63 150 
63 151 
63 152 
63 153 
63 154 
63 155 
64 65 
64 66 
64 67 
64 68 
64 69 
64 70 
64 71 
64 72 
64 73 
64 78 
64 88 
64 92 
64 94 
64 102 
64 106 
64 108 
64 116 
64 121 
64 122 
64 131 
64 136 
64 137 
64 147 
64 151 
64 153 
65 66 
65 67 
65 73 
65 77 
65 79 
65 81 
65 82 
65 83 
65 84 
65 85 
65 88 
65 91 
65 95 
65 102 
65 106 
65 109 
65 116 
65 122 
65 123 
65 131 
65 137 
65 138 
65 147 
65 151 
65 154 
66 67 
66 73 
66 78 
66 80 
66 88 
66 91 
66 95 
66 96 
66 97 
66 98 
66 99 
66 100 
66 102 
66 107 
66 110 
66 116 
66 123 
66 124 
66 131 
66 138 
66 139 
66 147 
66 152 
66 155 
67 73 
67 79 
67 88 
67 92 
67 94 
67 102 
67 108 
67 110 
67 111 
67 112 
67 113 
67 114 
67 115 
67 116 
67 124 
67 125 
67 131 
67 139 
67 140 
67 141 
67 142 
67 143 
67 144 
67 145 
67 147 
67 153 
67 155 
68 69 
68 70 
68 71 
68 72 
68 73 
68 74 
68 75 
68 76 
68 77 
68 78 
68 79 
68 80 
68 84 
68 89 
68 94 
68 98 
68 103 
68 108 
68 112 
68 117 
68 122 
68 126 
68 131 
68 136 
68 141 
68 146 
68 151 
69 70 
69 71 
69 72 
69 83 
69 85 
69 86 
69 87 
69 88 
69 89 
69 90 
69 94 
69 97 
69 99 
69 108 
69 111 
69 113 
69 122 
69 126 
69 127 
69 136 
69 141 
69 142 
69 151 
70 71 
70 72 
70 82 
70 85 
70 94 
70 96 
70 100 
70 101 
70 102 
70 103 
70 104 
70 105 
70 108 
70 111 
70 114 
70 122 
70 127 
70 128 
70 136 
70 142 
70 143 
70 151 
71 72 
71 81 
71 84 
71 94 
71 96 
71 100 
71 108 
71 112 
71 115 
71 116 
71 117 
71 118 
71 119 
71 120 
71 122 
71 128 
71 129 
71 136 
71 143 
71 144 
71 151 
72 81 
72 83 
72 94 
72 97 
72 99 
72 108 
72 113 
72 115 
72 122 
72 129 
72 130 
72 131 
72 132 
72 133 
72 134 
72 135 
72 136 
72 144 
72 145 
72 151 
73 74 
73 75 
73 76 
73 84 
73 88 
73 90 
73 91 
73 92 
73 93 
73 94 
73 95 
73 98 
73 102 
73 104 
73 112 
73 116 
73 118 
73 126 
73 131 
73 132 
73 141 
73 146 
73 147 
74 75 
74 76 
74 84 
74 87 
74 90 
74 98 
74 101 
74 105 
74 106 
74 107 
74 108 
74 109 
74 110 
74 112 
74 116 
74 119 
74 126 
74 132 
74 133 
74 141 
74 147 
74 148 
75 76 
75 84 
75 86 
75 89 
75 98 
75 101 
75 105 
75 112 
75 117 
75 120 
75 121 
75 122 
75 123 
75 124 
75 125 
75 126 
75 133 
75 134 
75 141 
75 148 
75 149 
76 84 
76 86 
76 88 
76 98 
76 102 
76 104 
76 112 
76 118 
76 120 
76 126 
76 134 
76 135 
76 136 
76 137 
76 138 
76 139 
76 140 
76 141 
76 149 
76 150 
77 78 
77 79 
77 80 
77 81 
77 82 
77 83 
77 84 
77 85 
77 89 
77 93 
77 95 
77 103 
77 107 
77 109 
77 117 
77 121 
77 123 
77 131 
77 136 
77 137 
77 146 
77 151 
77 152 
78 79 
78 80 
78 89 
78 92 
78 95 
78 96 
78 97 
78 98 
78 99 
78 100 
78 103 
78 106 
78 110 
78 117 
78 121 
78 124 
78 131 
78 137 
78 138 
78 146 
78 152 
78 153 
79 80 
79 89 
79 91 
79 94 
79 103 
79 106 
79 110 
79 111 
79 112 
79 113 
79 114 
79 115 
79 117 
79 122 
79 125 
79 131 
79 138 
79 139 
79 146 
79 153 
79 154 
80 89 
80 91 
80 93 
80 103 
80 107 
80 109 
80 117 
80 123 
80 125 
80 126 
80 127 
80 128 
80 129 
80 130 
80 131 
80 139 
80 140 
80 146 
80 154 
80 155 
81 82 
81 83 
81 84 
81 85 
81 95 
81 96 
81 97 
81 109 
81 112 
81 113 
81 123 
81 128 
81 129 
81 137 
81 144 
81 145 
81 151 
82 83 
82 84 
82 85 
82 95 
82 96 
82 98 
82 109 
82 111 
82 114 
82 123 
82 127 
82 130 
82 137 
82 143 
82 145 
82 146 
82 147 
82 148 
82 149 
82 150 
82 151 
83 84 
83 85 
83 95 
83 97 
83 99 
83 109 
83 111 
83 115 
83 123 
83 126 
83 130 
83 131 
83 132 
83 133 
83 134 
83 135 
83 137 
83 142 
83 144 
83 151 
84 85 
84 95 
84 98 
84 100 
84 109 
84 112 
84 115 
84 116 
84 117 
84 118 
84 119 
84 120 
84 123 
84 126 
84 129 
84 137 
84 141 
84 143 
84 151 
85 86 
85 87 
85 88 
85 89 
85 90 
85 95 
85 99 
85 100 
85 101 
85 102 
85 103 
85 104 
85 105 
85 109 
85 113 
85 114 
85 123 
85 127 
85 128 
85 137 
85 141 
85 142 
85 151 
86 87 
86 88 
86 89 
86 90 
86 99 
86 101 
86 102 
86 113 
86 117 
86 118 
86 127 
86 133 
86 134 
86 141 
86 149 
86 150 
87 88 
87 89 
87 90 
87 99 
87 101 
87 103 
87 113 
87 116 
87 119 
87 127 
87 132 
87 135 
87 141 
87 148 
87 150 
87 151 
87 152 
87 153 
87 154 
87 155 
88 89 
88 90 
88 99 
88 102 
88 104 
88 113 
88 116 
88 120 
88 127 
88 131 
88 135 
88 136 
88 137 
88 138 
88 139 
88 140 
88 141 
88 147 
88 149 
89 90 
89 99 
89 103 
89 105 
89 113 
89 117 
89 120 
89 121 
89 122 
89 123 
89 124 
89 125 
89 127 
89 131 
89 134 
89 141 
89 146 
89 148 
90 91 
90 92 
90 93 
90 94 
90 95 
90 99 
90 104 
90 105 
90 106 
90 107 
90 108 
90 109 
90 110 
90 113 
90 118 
90 119 
90 127 
90 132 
90 133 
90 141 
90 146 
90 147 
91 92 
91 93 
91 94 
91 95 
91 104 
91 106 
91 107 
91 118 
91 122 
91 123 
91 132 
91 138 
91 139 
91 146 
91 154 
91 155 
92 93 
92 94 
92 95 
92 104 
92 106 
92 108 
92 118 
92 121 
92 124 
92 132 
92 137 
92 140 
92 141 
92 142 
92 143 
92 144 
92 145 
92 146 
92 153 
92 155 
93 94 
93 95 
93 104 
93 107 
93 109 
93 118 
93 121 
93 125 
93 126 
93 127 
93 128 
93 129 
93 130 
93 132 
93 136 
93 140 
93 146 
93 152 
93 154 
94 95 
94 104 
94 108 
94 110 
94 111 
94 112 
94 113 
94 114 
94 115 
94 118 
94 122 
94 125 
94 132 
94 136 
94 139 
94 146 
94 151 
94 153 
95 96 
95 97 
95 98 
95 99 
95 100 
95 104 
95 109 
95 110 
95 118 
95 123 
95 124 
95 132 
95 137 
95 138 
95 146 
95 151 
95 152 
96 97 
96 98 
96 99 
96 100 
96 110 
96 111 
96 112 
96 124 
96 127 
96 128 
96 138 
96 143 
96 144 
96 152 
97 98 
97 99 
97 100 
97 110 
97 111 
97 113 
97 124 
97 126 
97 129 
97 138 
97 142 
97 145 
97 152 
98 99 
98 100 
98 110 
98 112 
98 114 
98 124 
98 126 
98 130 
98 138 
98 141 
98 145 
98 146 
98 147 
98 148 
98 149 
98 150 
98 152 
99 100 
99 110 
99 113 
99 115 
99 124 
99 127 
99 130 
99 131 
99 132 
99 133 
99 134 
99 135 
99 138 
99 141 
99 144 
99 152 
100 101 
100 102 
100 103 
100 104 
100 105 
100 110 
100 114 
100 115 
100 116 
100 117 
100 118 
100 119 
100 120 
100 124 
100 128 
100 129 
100 138 
100 142 
100 143 
100 152 
101 102 
101 103 
101 104 
101 105 
101 114 
101 116 
101 117 
101 128 
101 132 
101 133 
101 142 
101 148 
101 149 
102 103 
102 104 
102 105 
102 114 
102 116 
102 118 
102 128 
102 131 
102 134 
102 142 
102 147 
102 150 
103 104 
103 105 
103 114 
103 117 
103 119 
103 128 
103 131 
103 135 
103 142 
103 146 
103 150 
103 151 
103 152 
103 153 
103 154 
103 155 
104 105 
104 114 
104 118 
104 120 
104 128 
104 132 
104 135 
104 136 
104 137 
104 138 
104 139 
104 140 
104 142 
104 146 
104 149 
105 106 
105 107 
105 108 
105 109 
105 110 
105 114 
105 119 
105 120 
105 121 
105 122 
105 123 
105 124 
105 125 
105 128 
105 133 
105 134 
105 142 
105 147 
105 148 
106 107 
106 108 
106 109 
106 110 
106 119 
106 121 
106 122 
106 133 
106 137 
106 138 
106 147 
106 153 
106 154 
107 108 
107 109 
107 110 
107 119 
107 121 
107 123 
107 133 
107 136 
107 139 
107 147 
107 152 
107 155 
108 109 
108 110 
108 119 
108 122 
108 124 
108 133 
108 136 
108 140 
108 141 
108 142 
108 143 
108 144 
108 145 
108 147 
108 151 
108 155 
109 110 
109 119 
109 123 
109 125 
109 126 
109 127 
109 128 
109 129 
109 130 
109 133 
109 137 
109 140 
109 147 
109 151 
109 154 
110 111 
110 112 
110 113 
110 114 
110 115 
110 119 
110 124 
110 125 
110 133 
110 138 
110 139 
110 147 
110 152 
110 153 
111 112 
111 113 
111 114 
111 115 
111 125 
111 126 
111 127 
111 139 
111 142 
111 143 
111 153 
112 113 
112 114 
112 115 
112 125 
112 126 
112 128 
112 139 
112 141 
112 144 
112 153 
113 114 
113 115 
113 125 
113 127 
113 129 
113 139 
113 141 
113 145 
113 153 
114 115 
114 125 
114 128 
114 130 
114 139 
114 142 
114 145 
114 146 
114 147 
114 148 
114 149 
114 150 
114 153 
115 116 
115 117 
115 118 
115 119 
115 120 
115 125 
115 129 
115 130 
115 131 
115 132 
115 133 
115 134 
115 135 
115 139 
115 143 
115 144 
115 153 
116 117 
116 118 
116 119 
116 120 
116 129 
116 131 
116 132 
116 143 
116 147 
116 148 
117 118 
117 119 
117 120 
117 129 
117 131 
117 133 
117 143 
117 146 
117 149 
118 119 
118 120 
118 129 
118 132 
118 134 
118 143 
118 146 
118 150 
119 120 
119 129 
119 133 
119 135 
119 143 
119 147 
119 150 
119 151 
119 152 
119 153 
119 154 
119 155 
120 121 
120 122 
120 123 
120 124 
120 125 
120 129 
120 134 
120 135 
120 136 
120 137 
120 138 
120 139 
120 140 
120 143 
120 148 
120 149 
121 122 
121 123 
121 124 
121 125 
121 134 
121 136 
121 137 
121 148 
121 152 
121 153 
122 123 
122 124 
122 125 
122 134 
122 136 
122 138 
122 148 
122 151 
122 154 
123 124 
123 125 
123 134 
123 137 
123 139 
123 148 
123 151 
123 155 
124 125 
124 134 
124 138 
124 140 
124 141 
124 142 
124 143 
124 144 
124 145 
124 148 
124 152 
124 155 
125 126 
125 127 
125 128 
125 129 
125 130 
125 134 
125 139 
125 140 
125 148 
125 153 
125 154 
126 127 
126 128 
126 129 
126 130 
126 140 
126 141 
126 142 
126 154 
127 128 
127 129 
127 130 
127 140 
127 141 
127 143 
127 154 
128 129 
128 130 
128 140 
128 142 
128 144 
128 154 
129 130 
129 140 
129 143 
129 145 
129 154 
130 131 
130 132 
130 133 
130 134 
130 135 
130 140 
130 144 
130 145 
130 146 
130 147 
130 148 
130 149 
130 150 
130 154 
131 132 
131 133 
131 134 
131 135 
131 144 
131 146 
131 147 
132 133 
132 134 
132 135 
132 144 
132 146 
132 148 
133 134 
133 135 
133 144 
133 147 
133 149 
134 135 
134 144 
134 148 
134 150 
135 136 
135 137 
135 138 
135 139 
135 140 
135 144 
135 149 
135 150 
135 151 
135 152 
135 153 
135 154 
135 155 
136 137 
136 138 
136 139 
136 140 
136 149 
136 151 
136 152 
137 138 
137 139 
137 140 
137 149 
137 151 
137 153 
138 139 
138 140 
138 149 
138 152 
138 154 
139 140 
139 149 
139 153 
139 155 
140 141 
140 142 
140 143 
140 144 
140 145 
140 149 
140 154 
140 155 
141 142 
141 143 
141 144 
141 145 
141 155 
142 143 
142 144 
142 145 
142 155 
143 144 
143 145 
143 155 
144 145 
144 155 
145 146 
145 147 
145 148 
145 149 
145 150 
145 155 
146 147 
146 148 
146 149 
146 150 
147 148 
147 149 
147 150 
148 149 
148 150 
149 150 
150 151 
150 152 
150 153 
150 154 
150 155 
151 152 
151 153 
151 154 
151 155 
152 153 
152 154 
152 155 
153 154 
153 155 
154 155 
